Route #1: 15 26 39 42 44 30 2 38 24 18 28 25 34 20 31 11 37 32 45 23 6
Route #2: 1 22 29 4 12 8 17 21 14 9 16 43 19 13 35 36 40 33 10
Route #3: 
Route #4: 41
Route #5: 
Route #6: 3 7 5 27
Route #7: 
cost 1355.2911663703408
